	2331	
	File generato da crystal maker	
	X	2.000000	8.000000	3.000000
	X	0.500000	6.500000	2.500000
	X	9.000000	1.000000	10.000000
	X	3.000000	7.000000	6.000000
	X	0.500000	9.500000	7.500000
	X	1.500000	3.500000	0.500000
	X	1.500000	6.500000	5.500000
	X	2.000000	4.000000	5.000000
	X	3.000000	0.000000	3.000000
	X	0.500000	2.500000	4.500000
	X	1.500000	5.500000	9.500000
	X	0.500000	1.500000	8.500000
	X	5.000000	9.000000	0.000000
	X	6.000000	7.000000	8.000000
	X	7.500000	0.500000	8.500000
	X	5.000000	8.000000	4.000000
	X	9.500000	9.500000	5.500000
	X	9.500000	1.500000	1.500000
	X	4.000000	4.000000	3.000000
	X	9.500000	8.500000	9.500000
	X	3.500000	9.500000	8.500000
	X	4.000000	7.000000	8.000000
	X	5.000000	1.000000	1.000000
	X	8.000000	8.000000	1.000000
	X	5.000000	4.000000	6.000000
	X	2.500000	6.500000	7.500000
	X	4.000000	8.000000	9.000000
	X	6.000000	0.000000	4.000000
	X	3.500000	2.500000	5.500000
	X	4.000000	0.000000	5.000000
	X	6.000000	8.000000	8.000000
	X	2.500000	3.500000	1.500000
	X	7.000000	5.000000	0.000000
	X	4.500000	7.500000	1.500000
	X	5.000000	5.000000	7.000000
	X	4.000000	1.000000	6.000000
	X	8.000000	4.000000	3.000000
	X	1.000000	6.000000	3.000000
	X	5.500000	3.500000	3.500000
	X	7.500000	6.500000	1.500000
	X	9.000000	8.000000	3.000000
	X	5.500000	6.500000	8.500000
	X	7.000000	8.000000	10.000000
	X	6.500000	2.500000	6.500000
	X	7.000000	0.000000	6.000000
	X	4.500000	2.500000	7.500000
	X	0.000000	10.000000	5.000000
	X	0.000000	2.000000	1.000000
	X	10.000000	5.000000	1.000000
	X	7.500000	7.500000	2.500000
	X	5.500000	7.500000	9.500000
	X	8.500000	3.500000	0.500000
	X	9.000000	1.000000	0.000000
	X	7.000000	1.000000	7.000000
	X	8.500000	6.500000	5.500000
	X	8.000000	0.000000	10.000000
	X	3.000000	10.000000	7.000000
	X	4.500000	3.500000	7.500000
	X	3.000000	2.000000	3.000000
	X	1.000000	2.000000	10.000000
	X	7.500000	2.500000	8.500000
	X	9.000000	4.000000	10.000000
	X	1.500000	8.500000	4.500000
	X	0.500000	4.500000	3.500000
	X	10.000000	1.000000	8.000000
	X	7.500000	3.500000	9.500000
	X	1.500000	9.500000	5.500000
	X	2.000000	7.000000	5.000000
	X	1.500000	1.500000	1.500000
	X	3.000000	3.000000	3.000000
	X	0.500000	5.500000	4.500000
	X	6.000000	10.000000	8.000000
	X	2.000000	0.000000	2.000000
	X	9.500000	4.500000	1.500000
	X	6.500000	9.500000	0.500000
	X	6.000000	3.000000	5.000000
	X	6.000000	6.000000	10.000000
	X	4.500000	9.500000	0.500000
	X	5.000000	7.000000	6.000000
	X	2.500000	9.500000	7.500000
	X	3.500000	5.500000	5.500000
	X	4.000000	3.000000	5.000000
	X	8.000000	7.000000	4.000000
	X	7.000000	8.000000	0.000000
	X	5.000000	8.000000	7.000000
	X	5.000000	0.000000	3.000000
	X	2.500000	2.500000	4.500000
	X	4.000000	4.000000	6.000000
	X	9.500000	0.500000	8.500000
	X	1.000000	9.000000	3.000000
	X	8.000000	2.000000	10.000000
	X	0.000000	5.000000	2.000000
	X	7.000000	4.000000	2.000000
	X	5.500000	9.500000	8.500000
	X	6.500000	5.500000	6.500000
	X	7.000000	3.000000	6.000000
	X	4.500000	5.500000	7.500000
	X	8.500000	9.500000	6.500000
	X	1.000000	10.000000	4.000000
	X	1.000000	2.000000	0.000000
	X	10.000000	8.000000	1.000000
	X	9.000000	4.000000	0.000000
	X	0.000000	9.000000	8.000000
	X	5.500000	2.500000	5.500000
	X	4.500000	6.500000	8.500000
	X	9.000000	7.000000	5.000000
	X	6.500000	1.500000	8.500000
	X	0.000000	6.000000	2.000000
	X	10.000000	4.000000	3.000000
	X	7.500000	6.500000	4.500000
	X	1.000000	5.000000	10.000000
	X	9.000000	8.000000	6.000000
	X	9.000000	0.000000	2.000000
	X	0.000000	1.000000	9.000000
	X	7.000000	0.000000	9.000000
	X	3.000000	6.000000	4.000000
	X	3.000000	9.000000	9.000000
	X	2.000000	10.000000	5.000000
	X	1.500000	4.500000	1.500000
	X	2.000000	2.000000	1.000000
	X	0.500000	8.500000	4.500000
	X	9.500000	7.500000	2.500000
	X	0.500000	0.500000	0.500000
	X	6.000000	6.000000	0.000000
	X	3.000000	10.000000	10.000000
	X	3.000000	2.000000	6.000000
	X	10.000000	0.000000	10.000000
	X	2.000000	3.000000	2.000000
	X	3.500000	8.500000	6.500000
	X	6.000000	9.000000	10.000000
	X	6.000000	1.000000	6.000000
	X	9.500000	8.500000	2.500000
	X	2.500000	4.500000	3.500000
	X	4.000000	6.000000	5.000000
	X	3.500000	0.500000	1.500000
	X	6.500000	8.500000	2.500000
	X	1.500000	0.500000	8.500000
	X	8.000000	10.000000	4.000000
	X	8.000000	2.000000	0.000000
	X	9.500000	3.500000	9.500000
	X	6.000000	2.000000	7.000000
	X	3.500000	4.500000	8.500000
	X	5.000000	3.000000	3.000000
	X	2.500000	5.500000	4.500000
	X	3.500000	1.500000	2.500000
	X	6.500000	9.500000	3.500000
	X	5.000000	6.000000	8.000000
	X	8.000000	3.000000	1.000000
	X	4.000000	2.000000	7.000000
	X	0.000000	8.000000	2.000000
	X	4.500000	9.500000	3.500000
	X	7.000000	7.000000	2.000000
	X	9.000000	10.000000	6.000000
	X	8.500000	4.500000	2.500000
	X	1.000000	5.000000	0.000000
	X	7.000000	2.000000	9.000000
	X	6.500000	4.500000	9.500000
	X	5.500000	5.500000	5.500000
	X	4.500000	1.500000	4.500000
	X	10.000000	7.000000	4.000000
	X	8.500000	5.500000	3.500000
	X	4.500000	4.500000	9.500000
	X	1.000000	9.000000	6.000000
	X	1.000000	1.000000	2.000000
	X	0.000000	5.000000	5.000000
	X	7.500000	9.500000	4.500000
	X	1.000000	8.000000	10.000000
	X	9.000000	3.000000	2.000000
	X	5.500000	1.500000	7.500000
	X	0.000000	4.000000	9.000000
	X	7.000000	3.000000	9.000000
	X	1.500000	7.500000	2.500000
	X	3.000000	1.000000	0.000000
	X	0.500000	3.500000	1.500000
	X	7.500000	2.500000	1.500000
	X	8.500000	0.500000	9.500000
	X	10.000000	0.000000	0.000000
	X	3.000000	4.000000	5.000000
	X	7.500000	1.500000	5.500000
	X	6.000000	9.000000	0.000000
	X	4.000000	9.000000	1.000000
	X	2.000000	9.000000	8.000000
	X	3.000000	5.000000	6.000000
	X	0.500000	7.500000	7.500000
	X	10.000000	3.000000	10.000000
	X	2.000000	6.000000	2.000000
	X	6.000000	10.000000	1.000000
	X	9.500000	6.500000	4.500000
	X	1.500000	3.500000	9.500000
	X	4.000000	10.000000	1.000000
	X	2.000000	2.000000	4.000000
	X	2.000000	1.000000	8.000000
	X	5.000000	9.000000	9.000000
	X	8.000000	5.000000	0.000000
	X	6.000000	5.000000	7.000000
	X	3.500000	7.500000	8.500000
	X	4.000000	5.000000	8.000000
	X	2.500000	8.500000	4.500000
	X	2.500000	0.500000	0.500000
	X	7.000000	10.000000	3.000000
	X	5.000000	10.000000	10.000000
	X	8.000000	6.000000	1.000000
	X	8.000000	9.000000	6.000000
	X	6.000000	1.000000	9.000000
	X	2.500000	1.500000	1.500000
	X	5.500000	8.500000	0.500000
	X	5.000000	2.000000	5.000000
	X	2.500000	4.500000	6.500000
	X	4.000000	6.000000	8.000000
	X	8.500000	7.500000	2.500000
	X	1.000000	8.000000	0.000000
	X	6.500000	7.500000	9.500000
	X	8.000000	1.000000	7.000000
	X	0.000000	7.000000	4.000000
	X	5.500000	0.500000	1.500000
	X	10.000000	10.000000	4.000000
	X	10.000000	2.000000	0.000000
	X	8.500000	8.500000	3.500000
	X	9.000000	6.000000	3.000000
	X	7.000000	6.000000	10.000000
	X	6.500000	0.500000	6.500000
	X	9.000000	9.000000	8.000000
	X	1.000000	4.000000	2.000000
	X	0.000000	8.000000	5.000000
	X	0.000000	0.000000	1.000000
	X	7.500000	4.500000	0.500000
	X	5.500000	4.500000	7.500000
	X	8.500000	1.500000	0.500000
	X	4.500000	0.500000	6.500000
	X	10.000000	6.000000	6.000000
	X	9.000000	10.000000	9.000000
	X	8.500000	4.500000	5.500000
	X	9.000000	2.000000	5.000000
	X	8.500000	3.500000	9.500000
	X	0.500000	6.500000	1.500000
	X	7.500000	5.500000	1.500000
	X	10.000000	3.000000	0.000000
	X	0.500000	9.500000	6.500000
	X	1.500000	6.500000	4.500000
	X	2.000000	4.000000	4.000000
	X	3.000000	8.000000	6.000000
	X	3.000000	0.000000	2.000000
	X	0.500000	2.500000	3.500000
	X	1.000000	0.000000	9.000000
	X	7.500000	0.500000	7.500000
	X	1.500000	7.500000	5.500000
	X	2.000000	5.000000	5.000000
	X	3.000000	1.000000	3.000000
	X	0.500000	3.500000	4.500000
	X	9.500000	9.500000	4.500000
	X	9.500000	1.500000	0.500000
	X	3.000000	4.000000	8.000000
	X	7.500000	1.500000	8.500000
	X	5.000000	10.000000	0.000000
	X	4.000000	9.000000	4.000000
	X	9.500000	2.500000	1.500000
	X	8.000000	8.000000	0.000000
	X	6.000000	8.000000	7.000000
	X	4.000000	8.000000	8.000000
	X	6.000000	0.000000	3.000000
	X	3.500000	2.500000	4.500000
	X	2.500000	3.500000	0.500000
	X	4.500000	7.500000	0.500000
	X	5.000000	5.000000	6.000000
	X	3.500000	3.500000	5.500000
	X	4.000000	1.000000	5.000000
	X	8.000000	4.000000	2.000000
	X	6.000000	4.000000	9.000000
	X	7.000000	6.000000	0.000000
	X	2.500000	7.500000	6.500000
	X	7.000000	9.000000	5.000000
	X	8.000000	5.000000	3.000000
	X	4.500000	8.500000	0.500000
	X	2.500000	0.500000	3.500000
	X	0.000000	10.000000	4.000000
	X	5.500000	7.500000	8.500000
	X	6.500000	3.500000	6.500000
	X	7.000000	1.000000	6.000000
	X	8.500000	6.500000	4.500000
	X	1.000000	7.000000	2.000000
	X	8.000000	0.000000	9.000000
	X	0.000000	3.000000	1.000000
	X	4.500000	3.500000	6.500000
	X	10.000000	9.000000	6.000000
	X	8.500000	7.500000	5.500000
	X	9.000000	5.000000	5.000000
	X	1.000000	8.000000	3.000000
	X	8.000000	1.000000	10.000000
	X	0.000000	4.000000	2.000000
	X	7.500000	8.500000	1.500000
	X	0.000000	7.000000	7.000000
	X	5.500000	0.500000	4.500000
	X	10.000000	10.000000	7.000000
	X	10.000000	2.000000	3.000000
	X	9.000000	6.000000	6.000000
	X	1.500000	9.500000	4.500000
	X	1.500000	1.500000	0.500000
	X	3.000000	3.000000	2.000000
	X	0.500000	5.500000	3.500000
	X	1.000000	3.000000	9.000000
	X	2.000000	8.000000	5.000000
	X	1.500000	2.500000	1.500000
	X	2.000000	0.000000	1.000000
	X	0.500000	6.500000	4.500000
	X	9.500000	4.500000	0.500000
	X	3.000000	7.000000	8.000000
	X	0.500000	9.500000	9.500000
	X	9.500000	5.500000	1.500000
	X	3.500000	6.500000	0.500000
	X	2.000000	4.000000	7.000000
	X	3.500000	5.500000	4.500000
	X	8.000000	7.000000	3.000000
	X	6.000000	7.000000	10.000000
	X	5.000000	8.000000	6.000000
	X	5.000000	0.000000	2.000000
	X	2.500000	2.500000	3.500000
	X	4.000000	4.000000	5.000000
	X	9.500000	1.500000	3.500000
	X	4.000000	7.000000	10.000000
	X	9.500000	0.500000	7.500000
	X	5.000000	1.000000	3.000000
	X	6.500000	6.500000	1.500000
	X	7.000000	4.000000	1.000000
	X	8.000000	8.000000	3.000000
	X	5.000000	4.000000	8.000000
	X	2.500000	6.500000	9.500000
	X	6.000000	0.000000	6.000000
	X	3.500000	2.500000	7.500000
	X	4.000000	0.000000	7.000000
	X	1.000000	10.000000	3.000000
	X	2.500000	3.500000	3.500000
	X	8.000000	3.000000	10.000000
	X	7.000000	5.000000	2.000000
	X	4.500000	7.500000	3.500000
	X	0.000000	9.000000	7.000000
	X	4.500000	6.500000	7.500000
	X	6.500000	1.500000	7.500000
	X	0.000000	6.000000	1.000000
	X	1.000000	6.000000	5.000000
	X	5.500000	3.500000	5.500000
	X	10.000000	4.000000	2.000000
	X	7.500000	6.500000	3.500000
	X	9.000000	8.000000	5.000000
	X	8.500000	2.500000	1.500000
	X	9.000000	0.000000	1.000000
	X	6.500000	2.500000	8.500000
	X	7.000000	0.000000	8.000000
	X	4.500000	2.500000	9.500000
	X	0.000000	10.000000	7.000000
	X	0.000000	2.000000	3.000000
	X	10.000000	5.000000	3.000000
	X	7.500000	7.500000	4.500000
	X	8.500000	3.500000	2.500000
	X	9.000000	1.000000	2.000000
	X	7.000000	1.000000	9.000000
	X	8.500000	6.500000	7.500000
	X	0.500000	8.500000	3.500000
	X	3.000000	10.000000	9.000000
	X	3.000000	2.000000	5.000000
	X	1.500000	5.500000	1.500000
	X	2.000000	3.000000	1.000000
	X	10.000000	0.000000	9.000000
	X	0.500000	1.500000	0.500000
	X	6.000000	7.000000	0.000000
	X	1.500000	8.500000	6.500000
	X	0.500000	4.500000	5.500000
	X	10.000000	1.000000	10.000000
	X	9.500000	8.500000	1.500000
	X	3.500000	9.500000	0.500000
	X	4.000000	7.000000	0.000000
	X	1.500000	9.500000	7.500000
	X	2.000000	7.000000	7.000000
	X	1.500000	1.500000	3.500000
	X	3.000000	3.000000	5.000000
	X	0.500000	5.500000	6.500000
	X	6.000000	10.000000	10.000000
	X	3.500000	4.500000	7.500000
	X	4.000000	8.000000	1.000000
	X	9.500000	4.500000	3.500000
	X	3.500000	1.500000	1.500000
	X	6.500000	9.500000	2.500000
	X	8.000000	3.000000	0.000000
	X	4.000000	10.000000	10.000000
	X	6.000000	3.000000	7.000000
	X	7.000000	7.000000	1.000000
	X	4.500000	9.500000	2.500000
	X	5.000000	7.000000	8.000000
	X	2.500000	9.500000	9.500000
	X	3.500000	5.500000	7.500000
	X	4.000000	3.000000	7.000000
	X	8.000000	7.000000	6.000000
	X	5.500000	6.500000	0.500000
	X	7.000000	8.000000	2.000000
	X	5.000000	8.000000	9.000000
	X	5.000000	0.000000	5.000000
	X	2.500000	2.500000	6.500000
	X	4.000000	4.000000	8.000000
	X	8.500000	5.500000	2.500000
	X	1.000000	9.000000	5.000000
	X	1.000000	1.000000	1.000000
	X	0.000000	5.000000	4.000000
	X	7.500000	9.500000	3.500000
	X	5.500000	1.500000	6.500000
	X	7.000000	3.000000	8.000000
	X	4.500000	5.500000	9.500000
	X	6.500000	5.500000	8.500000
	X	8.500000	9.500000	8.500000
	X	1.000000	10.000000	6.000000
	X	1.000000	2.000000	2.000000
	X	10.000000	8.000000	3.000000
	X	7.500000	2.500000	0.500000
	X	9.000000	4.000000	2.000000
	X	0.000000	9.000000	10.000000
	X	5.500000	2.500000	7.500000
	X	9.000000	7.000000	7.000000
	X	8.500000	1.500000	9.500000
	X	7.500000	3.500000	1.500000
	X	10.000000	1.000000	0.000000
	X	3.000000	5.000000	5.000000
	X	0.500000	7.500000	6.500000
	X	7.500000	6.500000	6.500000
	X	10.000000	4.000000	5.000000
	X	9.000000	0.000000	4.000000
	X	2.000000	6.000000	1.000000
	X	6.000000	10.000000	0.000000
	X	3.000000	6.000000	6.000000
	X	4.000000	10.000000	0.000000
	X	2.000000	10.000000	7.000000
	X	1.500000	4.500000	3.500000
	X	2.000000	2.000000	3.000000
	X	0.500000	8.500000	6.500000
	X	9.500000	7.500000	4.500000
	X	0.500000	0.500000	2.500000
	X	6.000000	6.000000	2.000000
	X	3.000000	2.000000	8.000000
	X	2.000000	3.000000	4.000000
	X	5.000000	10.000000	9.000000
	X	8.000000	6.000000	0.000000
	X	3.500000	8.500000	8.500000
	X	8.000000	9.000000	5.000000
	X	6.000000	1.000000	8.000000
	X	2.500000	1.500000	0.500000
	X	9.500000	0.500000	0.500000
	X	5.000000	2.000000	4.000000
	X	2.500000	4.500000	5.500000
	X	4.000000	6.000000	7.000000
	X	3.500000	0.500000	3.500000
	X	6.500000	8.500000	4.500000
	X	8.000000	10.000000	6.000000
	X	8.000000	2.000000	2.000000
	X	6.000000	2.000000	9.000000
	X	5.500000	9.500000	0.500000
	X	5.000000	3.000000	5.000000
	X	2.500000	5.500000	6.500000
	X	3.500000	1.500000	4.500000
	X	5.000000	6.000000	10.000000
	X	4.000000	2.000000	9.000000
	X	6.500000	0.500000	5.500000
	X	0.000000	8.000000	4.000000
	X	7.000000	7.000000	4.000000
	X	0.000000	0.000000	0.000000
	X	4.500000	8.500000	9.500000
	X	10.000000	6.000000	5.000000
	X	9.000000	10.000000	8.000000
	X	8.500000	4.500000	4.500000
	X	9.000000	2.000000	4.000000
	X	1.000000	5.000000	2.000000
	X	0.000000	1.000000	1.000000
	X	7.500000	5.500000	0.500000
	X	5.500000	5.500000	7.500000
	X	4.500000	1.500000	6.500000
	X	10.000000	7.000000	6.000000
	X	8.500000	5.500000	5.500000
	X	3.000000	9.000000	1.000000
	X	1.000000	1.000000	4.000000
	X	7.500000	9.500000	6.500000
	X	9.000000	3.000000	4.000000
	X	5.500000	1.500000	9.500000
	X	1.500000	7.500000	4.500000
	X	2.000000	5.000000	4.000000
	X	3.000000	1.000000	2.000000
	X	0.500000	3.500000	3.500000
	X	3.000000	4.000000	7.000000
	X	7.500000	1.500000	7.500000
	X	6.000000	9.000000	2.000000
	X	4.000000	9.000000	3.000000
	X	9.500000	2.500000	0.500000
	X	2.000000	9.000000	10.000000
	X	3.000000	5.000000	8.000000
	X	0.500000	7.500000	9.500000
	X	2.000000	6.000000	4.000000
	X	1.500000	0.500000	0.500000
	X	9.500000	3.500000	1.500000
	X	3.500000	4.500000	0.500000
	X	9.500000	6.500000	6.500000
	X	3.500000	3.500000	4.500000
	X	6.000000	4.000000	8.000000
	X	3.500000	6.500000	9.500000
	X	5.000000	6.000000	0.000000
	X	2.500000	7.500000	5.500000
	X	7.000000	9.000000	4.000000
	X	2.000000	1.000000	10.000000
	X	8.000000	5.000000	2.000000
	X	6.000000	5.000000	9.000000
	X	4.000000	5.000000	10.000000
	X	2.500000	8.500000	6.500000
	X	2.500000	0.500000	2.500000
	X	7.000000	10.000000	5.000000
	X	6.500000	4.500000	1.500000
	X	7.000000	2.000000	1.000000
	X	8.000000	6.000000	3.000000
	X	8.000000	9.000000	8.000000
	X	2.500000	1.500000	3.500000
	X	5.500000	8.500000	2.500000
	X	4.500000	4.500000	1.500000
	X	5.000000	2.000000	7.000000
	X	2.500000	4.500000	8.500000
	X	8.500000	7.500000	4.500000
	X	1.000000	8.000000	2.000000
	X	8.000000	1.000000	9.000000
	X	0.000000	4.000000	1.000000
	X	7.500000	8.500000	0.500000
	X	0.000000	7.000000	6.000000
	X	5.500000	0.500000	3.500000
	X	10.000000	10.000000	6.000000
	X	10.000000	2.000000	2.000000
	X	8.500000	8.500000	5.500000
	X	9.000000	6.000000	5.000000
	X	8.500000	0.500000	1.500000
	X	6.500000	0.500000	8.500000
	X	9.000000	9.000000	10.000000
	X	1.000000	4.000000	4.000000
	X	0.000000	8.000000	7.000000
	X	0.000000	0.000000	3.000000
	X	7.500000	4.500000	2.500000
	X	5.500000	4.500000	9.500000
	X	4.500000	0.500000	8.500000
	X	2.000000	9.000000	0.000000
	X	10.000000	6.000000	8.000000
	X	9.000000	2.000000	7.000000
	X	1.500000	2.500000	0.500000
	X	10.000000	3.000000	2.000000
	X	0.500000	6.500000	3.500000
	X	7.500000	5.500000	3.500000
	X	3.000000	7.000000	7.000000
	X	0.500000	9.500000	8.500000
	X	1.500000	3.500000	1.500000
	X	1.500000	6.500000	6.500000
	X	2.000000	4.000000	6.000000
	X	3.000000	8.000000	8.000000
	X	3.000000	0.000000	4.000000
	X	0.500000	2.500000	5.500000
	X	2.000000	1.000000	0.000000
	X	5.000000	9.000000	1.000000
	X	7.500000	0.500000	9.500000
	X	3.500000	7.500000	0.500000
	X	4.000000	5.000000	0.000000
	X	2.000000	5.000000	7.000000
	X	9.500000	9.500000	6.500000
	X	9.500000	1.500000	2.500000
	X	5.000000	1.000000	2.000000
	X	9.500000	2.500000	3.500000
	X	6.500000	6.500000	0.500000
	X	8.000000	8.000000	2.000000
	X	5.000000	4.000000	7.000000
	X	2.500000	6.500000	8.500000
	X	4.000000	8.000000	10.000000
	X	6.000000	0.000000	5.000000
	X	3.500000	2.500000	6.500000
	X	4.000000	0.000000	6.000000
	X	6.000000	8.000000	9.000000
	X	2.500000	3.500000	2.500000
	X	6.500000	7.500000	1.500000
	X	7.000000	5.000000	1.000000
	X	4.500000	7.500000	2.500000
	X	5.000000	5.000000	8.000000
	X	3.500000	3.500000	7.500000
	X	4.000000	1.000000	7.000000
	X	8.000000	4.000000	4.000000
	X	7.000000	6.000000	2.000000
	X	2.500000	7.500000	8.500000
	X	9.000000	9.000000	0.000000
	X	7.000000	9.000000	7.000000
	X	6.500000	2.500000	7.500000
	X	0.000000	10.000000	6.000000
	X	0.000000	2.000000	2.000000
	X	10.000000	5.000000	2.000000
	X	7.500000	7.500000	3.500000
	X	8.500000	3.500000	1.500000
	X	9.000000	1.000000	1.000000
	X	6.500000	3.500000	8.500000
	X	7.000000	1.000000	8.000000
	X	8.500000	6.500000	6.500000
	X	1.000000	7.000000	4.000000
	X	0.000000	3.000000	3.000000
	X	4.500000	3.500000	8.500000
	X	10.000000	9.000000	8.000000
	X	8.500000	7.500000	7.500000
	X	9.000000	5.000000	7.000000
	X	1.000000	0.000000	1.000000
	X	7.500000	8.500000	3.500000
	X	5.500000	0.500000	6.500000
	X	10.000000	2.000000	5.000000
	X	10.000000	1.000000	9.000000
	X	1.500000	9.500000	6.500000
	X	2.000000	7.000000	6.000000
	X	1.500000	1.500000	2.500000
	X	3.000000	3.000000	4.000000
	X	0.500000	5.500000	5.500000
	X	4.000000	8.000000	0.000000
	X	2.000000	8.000000	7.000000
	X	1.500000	2.500000	3.500000
	X	2.000000	0.000000	3.000000
	X	0.500000	6.500000	6.500000
	X	9.500000	4.500000	2.500000
	X	3.000000	7.000000	10.000000
	X	9.500000	5.500000	3.500000
	X	2.000000	4.000000	9.000000
	X	3.500000	5.500000	6.500000
	X	8.000000	7.000000	5.000000
	X	7.000000	8.000000	1.000000
	X	5.000000	8.000000	8.000000
	X	5.000000	0.000000	4.000000
	X	2.500000	2.500000	5.500000
	X	4.000000	4.000000	7.000000
	X	9.500000	0.500000	9.500000
	X	5.500000	7.500000	0.500000
	X	5.000000	1.000000	5.000000
	X	6.500000	6.500000	3.500000
	X	7.000000	4.000000	3.000000
	X	8.000000	8.000000	5.000000
	X	5.000000	4.000000	10.000000
	X	8.000000	0.000000	1.000000
	X	4.000000	0.000000	9.000000
	X	8.500000	9.500000	7.500000
	X	1.000000	10.000000	5.000000
	X	2.500000	3.500000	5.500000
	X	1.000000	2.000000	1.000000
	X	0.000000	9.000000	9.000000
	X	5.500000	2.500000	6.500000
	X	4.500000	6.500000	9.500000
	X	6.500000	1.500000	9.500000
	X	0.000000	6.000000	3.000000
	X	1.000000	6.000000	7.000000
	X	7.500000	3.500000	0.500000
	X	5.500000	3.500000	7.500000
	X	10.000000	4.000000	4.000000
	X	7.500000	6.500000	5.500000
	X	9.000000	8.000000	7.000000
	X	8.500000	2.500000	3.500000
	X	9.000000	0.000000	3.000000
	X	1.000000	3.000000	1.000000
	X	7.000000	0.000000	10.000000
	X	0.000000	10.000000	9.000000
	X	0.000000	2.000000	5.000000
	X	3.000000	6.000000	5.000000
	X	7.500000	7.500000	6.500000
	X	10.000000	5.000000	5.000000
	X	9.000000	1.000000	4.000000
	X	3.000000	9.000000	10.000000
	X	1.500000	4.500000	2.500000
	X	0.500000	8.500000	5.500000
	X	0.500000	0.500000	1.500000
	X	6.000000	6.000000	1.000000
	X	3.000000	2.000000	7.000000
	X	1.500000	5.500000	3.500000
	X	2.000000	3.000000	3.000000
	X	0.500000	1.500000	2.500000
	X	6.000000	7.000000	2.000000
	X	1.500000	8.500000	8.500000
	X	0.500000	4.500000	7.500000
	X	9.500000	8.500000	3.500000
	X	3.500000	9.500000	2.500000
	X	4.000000	7.000000	2.000000
	X	2.000000	7.000000	9.000000
	X	1.500000	1.500000	5.500000
	X	1.500000	0.500000	9.500000
	X	8.000000	10.000000	5.000000
	X	6.000000	2.000000	8.000000
	X	3.500000	4.500000	9.500000
	X	5.000000	4.000000	0.000000
	X	5.000000	3.000000	4.000000
	X	2.500000	5.500000	5.500000
	X	9.500000	4.500000	5.500000
	X	3.500000	1.500000	3.500000
	X	6.500000	9.500000	4.500000
	X	5.000000	6.000000	9.000000
	X	8.000000	3.000000	2.000000
	X	6.000000	3.000000	9.000000
	X	4.000000	2.000000	8.000000
	X	7.000000	7.000000	3.000000
	X	4.500000	9.500000	4.500000
	X	5.000000	7.000000	10.000000
	X	3.500000	5.500000	9.500000
	X	4.000000	3.000000	9.000000
	X	8.000000	7.000000	8.000000
	X	5.500000	6.500000	2.500000
	X	7.000000	8.000000	4.000000
	X	7.000000	0.000000	0.000000
	X	4.500000	2.500000	1.500000
	X	5.000000	0.000000	7.000000
	X	8.500000	5.500000	4.500000
	X	3.000000	9.000000	0.000000
	X	1.000000	9.000000	7.000000
	X	1.000000	1.000000	3.000000
	X	0.000000	5.000000	6.000000
	X	7.500000	9.500000	5.500000
	X	9.000000	3.000000	3.000000
	X	5.500000	1.500000	8.500000
	X	7.000000	3.000000	10.000000
	X	3.000000	10.000000	1.000000
	X	1.000000	2.000000	4.000000
	X	10.000000	8.000000	5.000000
	X	10.000000	0.000000	1.000000
	X	7.500000	2.500000	2.500000
	X	9.000000	4.000000	4.000000
	X	5.500000	2.500000	9.500000
	X	9.000000	7.000000	9.000000
	X	6.000000	9.000000	1.000000
	X	3.000000	5.000000	7.000000
	X	0.500000	7.500000	8.500000
	X	2.000000	6.000000	3.000000
	X	6.000000	10.000000	2.000000
	X	9.500000	3.500000	0.500000
	X	3.000000	6.000000	8.000000
	X	9.500000	6.500000	5.500000
	X	4.000000	10.000000	2.000000
	X	2.000000	10.000000	9.000000
	X	1.500000	4.500000	5.500000
	X	2.000000	2.000000	5.000000
	X	0.500000	8.500000	8.500000
	X	9.500000	7.500000	6.500000
	X	0.500000	0.500000	4.500000
	X	6.000000	6.000000	4.000000
	X	6.000000	5.000000	8.000000
	X	3.500000	7.500000	9.500000
	X	2.500000	9.500000	1.500000
	X	5.000000	7.000000	0.000000
	X	7.000000	10.000000	4.000000
	X	6.500000	4.500000	0.500000
	X	8.000000	6.000000	2.000000
	X	8.000000	9.000000	7.000000
	X	6.000000	1.000000	10.000000
	X	2.500000	1.500000	2.500000
	X	5.500000	8.500000	1.500000
	X	4.500000	4.500000	0.500000
	X	5.000000	2.000000	6.000000
	X	2.500000	4.500000	7.500000
	X	4.000000	6.000000	9.000000
	X	3.500000	0.500000	5.500000
	X	6.500000	8.500000	6.500000
	X	8.000000	10.000000	8.000000
	X	8.000000	2.000000	4.000000
	X	5.500000	9.500000	2.500000
	X	6.500000	5.500000	0.500000
	X	7.000000	3.000000	0.000000
	X	4.500000	5.500000	1.500000
	X	5.000000	3.000000	7.000000
	X	2.500000	5.500000	8.500000
	X	8.500000	8.500000	4.500000
	X	6.500000	0.500000	7.500000
	X	1.000000	4.000000	3.000000
	X	0.000000	8.000000	6.000000
	X	0.000000	0.000000	2.000000
	X	5.500000	4.500000	8.500000
	X	8.500000	1.500000	1.500000
	X	4.500000	0.500000	7.500000
	X	10.000000	6.000000	7.000000
	X	9.000000	10.000000	10.000000
	X	8.500000	4.500000	6.500000
	X	9.000000	2.000000	6.000000
	X	1.000000	5.000000	4.000000
	X	0.000000	1.000000	3.000000
	X	10.000000	3.000000	1.000000
	X	7.500000	5.500000	2.500000
	X	5.500000	5.500000	9.500000
	X	4.500000	1.500000	8.500000
	X	10.000000	7.000000	8.000000
	X	3.000000	9.000000	3.000000
	X	3.000000	8.000000	7.000000
	X	7.500000	9.500000	8.500000
	X	1.000000	0.000000	10.000000
	X	9.000000	3.000000	6.000000
	X	1.500000	7.500000	6.500000
	X	2.000000	5.000000	6.000000
	X	3.000000	1.000000	4.000000
	X	0.500000	3.500000	5.500000
	X	3.000000	4.000000	9.000000
	X	7.500000	1.500000	9.500000
	X	5.000000	10.000000	1.000000
	X	3.500000	8.500000	0.500000
	X	6.000000	9.000000	4.000000
	X	4.000000	9.000000	5.000000
	X	6.000000	1.000000	0.000000
	X	9.500000	2.500000	2.500000
	X	3.000000	5.000000	10.000000
	X	2.000000	6.000000	6.000000
	X	9.500000	3.500000	3.500000
	X	6.500000	7.500000	0.500000
	X	9.500000	6.500000	8.500000
	X	3.500000	3.500000	6.500000
	X	6.000000	4.000000	10.000000
	X	7.000000	6.000000	1.000000
	X	2.500000	7.500000	7.500000
	X	7.000000	9.000000	6.000000
	X	8.000000	5.000000	4.000000
	X	4.500000	8.500000	1.500000
	X	2.500000	8.500000	8.500000
	X	2.500000	0.500000	4.500000
	X	9.000000	10.000000	0.000000
	X	7.000000	10.000000	7.000000
	X	6.500000	4.500000	3.500000
	X	7.000000	2.000000	3.000000
	X	6.500000	3.500000	7.500000
	X	1.000000	7.000000	3.000000
	X	5.500000	8.500000	4.500000
	X	0.000000	3.000000	2.000000
	X	4.500000	4.500000	3.500000
	X	10.000000	9.000000	7.000000
	X	8.500000	7.500000	6.500000
	X	9.000000	5.000000	6.000000
	X	1.000000	8.000000	4.000000
	X	1.000000	0.000000	0.000000
	X	0.000000	4.000000	3.000000
	X	7.500000	8.500000	2.500000
	X	0.000000	7.000000	8.000000
	X	5.500000	0.500000	5.500000
	X	10.000000	10.000000	8.000000
	X	10.000000	2.000000	4.000000
	X	8.500000	8.500000	7.500000
	X	9.000000	6.000000	7.000000
	X	8.500000	0.500000	3.500000
	X	1.000000	4.000000	6.000000
	X	0.000000	0.000000	5.000000
	X	7.500000	4.500000	4.500000
	X	1.000000	3.000000	10.000000
	X	10.000000	6.000000	10.000000
	X	2.000000	9.000000	2.000000
	X	9.000000	2.000000	9.000000
	X	2.000000	8.000000	6.000000
	X	1.500000	2.500000	2.500000
	X	0.500000	6.500000	5.500000
	X	3.000000	7.000000	9.000000
	X	1.500000	3.500000	3.500000
	X	9.500000	5.500000	2.500000
	X	6.000000	4.000000	0.000000
	X	3.500000	6.500000	1.500000
	X	1.500000	6.500000	8.500000
	X	2.000000	4.000000	8.000000
	X	3.000000	8.000000	10.000000
	X	3.000000	0.000000	6.000000
	X	0.500000	2.500000	7.500000
	X	2.000000	1.000000	2.000000
	X	5.000000	9.000000	3.000000
	X	6.000000	5.000000	1.000000
	X	4.000000	5.000000	2.000000
	X	2.000000	5.000000	9.000000
	X	9.500000	9.500000	8.500000
	X	9.500000	1.500000	4.500000
	X	5.000000	1.000000	4.000000
	X	6.500000	6.500000	2.500000
	X	8.000000	8.000000	4.000000
	X	5.000000	4.000000	9.000000
	X	8.000000	0.000000	0.000000
	X	6.000000	0.000000	7.000000
	X	3.500000	2.500000	8.500000
	X	4.000000	0.000000	8.000000
	X	2.500000	3.500000	4.500000
	X	6.500000	7.500000	3.500000
	X	7.000000	5.000000	3.000000
	X	4.500000	7.500000	4.500000
	X	5.000000	5.000000	10.000000
	X	8.000000	1.000000	1.000000
	X	4.000000	1.000000	9.000000
	X	8.000000	4.000000	6.000000
	X	1.000000	6.000000	6.000000
	X	9.000000	9.000000	2.000000
	X	5.500000	3.500000	6.500000
	X	7.000000	9.000000	9.000000
	X	8.500000	2.500000	2.500000
	X	1.000000	3.000000	0.000000
	X	6.500000	2.500000	9.500000
	X	0.000000	10.000000	8.000000
	X	0.000000	2.000000	4.000000
	X	10.000000	5.000000	4.000000
	X	7.500000	7.500000	5.500000
	X	8.500000	3.500000	3.500000
	X	9.000000	1.000000	3.000000
	X	7.000000	1.000000	10.000000
	X	8.500000	6.500000	8.500000
	X	0.500000	9.500000	0.500000
	X	1.000000	7.000000	6.000000
	X	0.000000	3.000000	5.000000
	X	10.000000	9.000000	10.000000
	X	9.000000	5.000000	9.000000
	X	1.500000	5.500000	2.500000
	X	0.500000	1.500000	1.500000
	X	6.000000	7.000000	1.000000
	X	7.500000	0.500000	1.500000
	X	1.500000	8.500000	7.500000
	X	0.500000	4.500000	6.500000
	X	3.500000	9.500000	1.500000
	X	4.000000	7.000000	1.000000
	X	1.500000	9.500000	8.500000
	X	2.000000	7.000000	8.000000
	X	1.500000	1.500000	4.500000
	X	3.000000	3.000000	6.000000
	X	0.500000	5.500000	7.500000
	X	6.000000	8.000000	1.000000
	X	2.500000	6.500000	0.500000
	X	4.000000	8.000000	2.000000
	X	2.000000	8.000000	9.000000
	X	1.500000	2.500000	5.500000
	X	2.000000	0.000000	5.000000
	X	9.500000	4.500000	4.500000
	X	6.000000	3.000000	8.000000
	X	5.000000	5.000000	0.000000
	X	9.500000	5.500000	5.500000
	X	5.000000	7.000000	9.000000
	X	3.500000	5.500000	8.500000
	X	4.000000	3.000000	8.000000
	X	8.000000	7.000000	7.000000
	X	5.500000	6.500000	1.500000
	X	7.000000	8.000000	3.000000
	X	5.000000	8.000000	10.000000
	X	4.500000	2.500000	0.500000
	X	5.000000	0.000000	6.000000
	X	2.500000	2.500000	7.500000
	X	4.000000	4.000000	9.000000
	X	5.500000	7.500000	2.500000
	X	6.500000	3.500000	0.500000
	X	7.000000	1.000000	0.000000
	X	5.000000	1.000000	7.000000
	X	6.500000	6.500000	5.500000
	X	7.000000	4.000000	5.000000
	X	8.000000	0.000000	3.000000
	X	6.500000	5.500000	9.500000
	X	3.000000	10.000000	0.000000
	X	4.500000	3.500000	0.500000
	X	1.000000	10.000000	7.000000
	X	8.500000	9.500000	9.500000
	X	10.000000	9.000000	0.000000
	X	1.000000	2.000000	3.000000
	X	10.000000	8.000000	4.000000
	X	9.000000	4.000000	3.000000
	X	5.500000	2.500000	8.500000
	X	9.000000	7.000000	8.000000
	X	0.000000	6.000000	5.000000
	X	10.000000	1.000000	1.000000
	X	1.000000	6.000000	9.000000
	X	7.500000	3.500000	2.500000
	X	5.500000	3.500000	9.500000
	X	10.000000	4.000000	6.000000
	X	7.500000	6.500000	7.500000
	X	9.000000	8.000000	9.000000
	X	8.500000	2.500000	5.500000
	X	9.000000	0.000000	5.000000
	X	1.000000	3.000000	3.000000
	X	0.000000	2.000000	7.000000
	X	3.000000	6.000000	7.000000
	X	10.000000	5.000000	7.000000
	X	9.000000	1.000000	6.000000
	X	2.000000	10.000000	8.000000
	X	1.500000	4.500000	4.500000
	X	0.500000	8.500000	7.500000
	X	9.500000	7.500000	5.500000
	X	0.500000	0.500000	3.500000
	X	6.000000	6.000000	3.000000
	X	3.000000	2.000000	9.000000
	X	2.500000	9.500000	0.500000
	X	1.500000	5.500000	5.500000
	X	2.000000	3.000000	5.000000
	X	0.500000	1.500000	4.500000
	X	6.000000	7.000000	4.000000
	X	0.500000	4.500000	9.500000
	X	3.500000	8.500000	9.500000
	X	5.000000	8.000000	0.000000
	X	9.500000	8.500000	5.500000
	X	4.000000	7.000000	4.000000
	X	9.500000	0.500000	1.500000
	X	3.500000	0.500000	4.500000
	X	6.500000	8.500000	5.500000
	X	8.000000	10.000000	7.000000
	X	8.000000	2.000000	3.000000
	X	6.000000	2.000000	10.000000
	X	5.500000	9.500000	1.500000
	X	4.500000	5.500000	0.500000
	X	5.000000	3.000000	6.000000
	X	2.500000	5.500000	7.500000
	X	3.500000	1.500000	5.500000
	X	6.500000	9.500000	6.500000
	X	8.000000	3.000000	4.000000
	X	4.000000	2.000000	10.000000
	X	0.000000	9.000000	1.000000
	X	4.500000	6.500000	1.500000
	X	7.000000	7.000000	5.000000
	X	4.500000	9.500000	6.500000
	X	6.500000	1.500000	1.500000
	X	1.000000	5.000000	3.000000
	X	5.500000	6.500000	4.500000
	X	0.000000	1.000000	2.000000
	X	4.500000	2.500000	3.500000
	X	7.000000	0.000000	2.000000
	X	5.500000	5.500000	8.500000
	X	4.500000	1.500000	7.500000
	X	10.000000	7.000000	7.000000
	X	8.500000	5.500000	6.500000
	X	3.000000	9.000000	2.000000
	X	1.000000	9.000000	9.000000
	X	1.000000	1.000000	5.000000
	X	0.000000	5.000000	8.000000
	X	7.500000	9.500000	7.500000
	X	9.000000	3.000000	5.000000
	X	3.000000	10.000000	3.000000
	X	1.000000	2.000000	6.000000
	X	10.000000	8.000000	7.000000
	X	10.000000	0.000000	3.000000
	X	7.500000	2.500000	4.500000
	X	9.000000	4.000000	6.000000
	X	1.500000	8.500000	0.500000
	X	6.000000	9.000000	3.000000
	X	3.000000	5.000000	9.000000
	X	2.000000	6.000000	5.000000
	X	1.500000	0.500000	1.500000
	X	6.000000	10.000000	4.000000
	X	9.500000	3.500000	2.500000
	X	6.000000	2.000000	0.000000
	X	3.500000	4.500000	1.500000
	X	3.000000	6.000000	10.000000
	X	9.500000	6.500000	7.500000
	X	5.000000	6.000000	1.000000
	X	4.000000	10.000000	4.000000
	X	4.000000	2.000000	0.000000
	X	1.500000	4.500000	7.500000
	X	2.000000	2.000000	7.000000
	X	9.500000	7.500000	8.500000
	X	0.500000	0.500000	6.500000
	X	6.000000	5.000000	10.000000
	X	5.000000	7.000000	2.000000
	X	4.000000	3.000000	1.000000
	X	2.500000	8.500000	7.500000
	X	7.000000	10.000000	6.000000
	X	6.500000	4.500000	2.500000
	X	7.000000	2.000000	2.000000
	X	8.000000	6.000000	4.000000
	X	8.000000	9.000000	9.000000
	X	2.500000	1.500000	4.500000
	X	5.500000	8.500000	3.500000
	X	4.500000	4.500000	2.500000
	X	5.000000	2.000000	8.000000
	X	2.500000	4.500000	9.500000
	X	3.500000	0.500000	7.500000
	X	6.500000	8.500000	8.500000
	X	8.000000	10.000000	10.000000
	X	8.000000	2.000000	6.000000
	X	5.500000	9.500000	4.500000
	X	5.500000	1.500000	0.500000
	X	7.000000	3.000000	2.000000
	X	4.500000	5.500000	3.500000
	X	5.000000	3.000000	9.000000
	X	8.500000	8.500000	6.500000
	X	8.500000	0.500000	2.500000
	X	6.500000	0.500000	9.500000
	X	1.000000	4.000000	5.000000
	X	0.000000	8.000000	8.000000
	X	0.000000	0.000000	4.000000
	X	7.500000	4.500000	3.500000
	X	8.500000	1.500000	3.500000
	X	4.500000	0.500000	9.500000
	X	2.000000	9.000000	1.000000
	X	10.000000	6.000000	9.000000
	X	8.500000	4.500000	8.500000
	X	0.500000	7.500000	0.500000
	X	1.000000	5.000000	6.000000
	X	9.000000	2.000000	8.000000
	X	0.000000	1.000000	5.000000
	X	10.000000	3.000000	3.000000
	X	7.500000	5.500000	4.500000
	X	10.000000	7.000000	10.000000
	X	1.500000	3.500000	2.500000
	X	1.500000	6.500000	7.500000
	X	3.000000	8.000000	9.000000
	X	3.000000	0.000000	5.000000
	X	0.500000	2.500000	6.500000
	X	2.000000	1.000000	1.000000
	X	5.000000	9.000000	2.000000
	X	6.000000	5.000000	0.000000
	X	3.500000	7.500000	1.500000
	X	4.000000	5.000000	1.000000
	X	1.500000	7.500000	8.500000
	X	2.000000	5.000000	8.000000
	X	3.000000	1.000000	6.000000
	X	0.500000	3.500000	7.500000
	X	9.500000	9.500000	7.500000
	X	5.000000	10.000000	3.000000
	X	3.500000	8.500000	2.500000
	X	6.000000	9.000000	6.000000
	X	4.000000	9.000000	7.000000
	X	6.000000	1.000000	2.000000
	X	9.500000	2.500000	4.500000
	X	6.000000	8.000000	10.000000
	X	4.000000	6.000000	1.000000
	X	9.500000	3.500000	5.500000
	X	6.500000	7.500000	2.500000
	X	5.000000	5.000000	9.000000
	X	8.000000	1.000000	0.000000
	X	3.500000	3.500000	8.500000
	X	4.000000	1.000000	8.000000
	X	8.000000	4.000000	5.000000
	X	7.000000	6.000000	3.000000
	X	2.500000	7.500000	9.500000
	X	9.000000	9.000000	1.000000
	X	7.000000	9.000000	8.000000
	X	8.000000	5.000000	6.000000
	X	5.500000	4.500000	0.500000
	X	4.500000	8.500000	3.500000
	X	2.500000	0.500000	6.500000
	X	9.000000	10.000000	2.000000
	X	7.000000	10.000000	9.000000
	X	7.000000	2.000000	5.000000
	X	6.500000	3.500000	9.500000
	X	1.000000	7.000000	5.000000
	X	5.500000	8.500000	6.500000
	X	0.000000	3.000000	4.000000
	X	4.500000	4.500000	5.500000
	X	4.500000	3.500000	9.500000
	X	10.000000	9.000000	9.000000
	X	8.500000	7.500000	8.500000
	X	9.000000	5.000000	8.000000
	X	1.000000	8.000000	6.000000
	X	1.000000	0.000000	2.000000
	X	0.000000	4.000000	5.000000
	X	7.500000	8.500000	4.500000
	X	7.500000	0.500000	0.500000
	X	0.000000	7.000000	10.000000
	X	5.500000	0.500000	7.500000
	X	10.000000	10.000000	10.000000
	X	10.000000	2.000000	6.000000
	X	9.000000	6.000000	9.000000
	X	8.500000	0.500000	5.500000
	X	3.000000	4.000000	1.000000
	X	7.500000	1.500000	1.500000
	X	7.500000	4.500000	6.500000
	X	6.000000	8.000000	0.000000
	X	2.000000	8.000000	8.000000
	X	1.500000	2.500000	4.500000
	X	2.000000	0.000000	4.000000
	X	0.500000	6.500000	7.500000
	X	1.500000	3.500000	5.500000
	X	9.500000	5.500000	4.500000
	X	6.000000	4.000000	2.000000
	X	3.500000	6.500000	3.500000
	X	2.000000	4.000000	10.000000
	X	3.000000	0.000000	8.000000
	X	0.500000	2.500000	9.500000
	X	2.000000	1.000000	4.000000
	X	5.000000	9.000000	5.000000
	X	4.000000	5.000000	4.000000
	X	9.500000	1.500000	6.500000
	X	5.500000	7.500000	1.500000
	X	5.000000	1.000000	6.000000
	X	6.500000	6.500000	4.500000
	X	7.000000	4.000000	4.000000
	X	8.000000	8.000000	6.000000
	X	8.000000	0.000000	2.000000
	X	6.000000	0.000000	9.000000
	X	4.000000	0.000000	10.000000
	X	2.500000	3.500000	6.500000
	X	6.500000	7.500000	5.500000
	X	7.000000	5.000000	5.000000
	X	4.500000	7.500000	6.500000
	X	8.000000	1.000000	3.000000
	X	8.000000	4.000000	8.000000
	X	0.000000	7.000000	0.000000
	X	10.000000	10.000000	0.000000
	X	0.000000	6.000000	4.000000
	X	1.000000	6.000000	8.000000
	X	9.000000	9.000000	4.000000
	X	5.500000	3.500000	8.500000
	X	9.000000	8.000000	8.000000
	X	8.500000	2.500000	4.500000
	X	1.000000	3.000000	2.000000
	X	0.000000	10.000000	10.000000
	X	0.000000	2.000000	6.000000
	X	10.000000	5.000000	6.000000
	X	7.500000	7.500000	7.500000
	X	8.500000	3.500000	5.500000
	X	9.000000	1.000000	5.000000
	X	3.000000	7.000000	1.000000
	X	0.500000	9.500000	2.500000
	X	1.000000	7.000000	8.000000
	X	0.000000	3.000000	7.000000
	X	2.000000	4.000000	0.000000
	X	1.500000	5.500000	4.500000
	X	0.500000	1.500000	3.500000
	X	6.000000	7.000000	3.000000
	X	7.500000	0.500000	3.500000
	X	1.500000	8.500000	9.500000
	X	0.500000	4.500000	8.500000
	X	9.500000	8.500000	4.500000
	X	3.500000	9.500000	3.500000
	X	4.000000	7.000000	3.000000
	X	2.000000	7.000000	10.000000
	X	1.500000	1.500000	6.500000
	X	3.000000	3.000000	8.000000
	X	0.500000	5.500000	9.500000
	X	5.000000	4.000000	1.000000
	X	2.500000	6.500000	2.500000
	X	4.000000	8.000000	4.000000
	X	6.000000	8.000000	3.000000
	X	3.500000	2.500000	0.500000
	X	4.000000	0.000000	0.000000
	X	2.000000	0.000000	7.000000
	X	9.500000	4.500000	6.500000
	X	6.500000	9.500000	5.500000
	X	8.000000	3.000000	3.000000
	X	6.000000	3.000000	10.000000
	X	0.000000	9.000000	0.000000
	X	4.500000	6.500000	0.500000
	X	4.500000	9.500000	5.500000
	X	6.500000	1.500000	0.500000
	X	4.000000	3.000000	10.000000
	X	8.000000	7.000000	9.000000
	X	5.500000	6.500000	3.500000
	X	7.000000	8.000000	5.000000
	X	6.500000	2.500000	1.500000
	X	7.000000	0.000000	1.000000
	X	4.500000	2.500000	2.500000
	X	5.000000	0.000000	8.000000
	X	2.500000	2.500000	9.500000
	X	0.000000	10.000000	0.000000
	X	5.500000	7.500000	4.500000
	X	7.000000	1.000000	2.000000
	X	1.000000	9.000000	8.000000
	X	8.500000	6.500000	0.500000
	X	0.000000	5.000000	7.000000
	X	7.000000	4.000000	7.000000
	X	3.000000	10.000000	2.000000
	X	1.000000	10.000000	9.000000
	X	1.000000	2.000000	5.000000
	X	10.000000	8.000000	6.000000
	X	10.000000	0.000000	2.000000
	X	7.500000	2.500000	3.500000
	X	9.000000	4.000000	5.000000
	X	9.000000	7.000000	10.000000
	X	0.000000	6.000000	7.000000
	X	10.000000	1.000000	3.000000
	X	7.500000	3.500000	4.500000
	X	1.500000	9.500000	0.500000
	X	2.000000	7.000000	0.000000
	X	7.500000	6.500000	9.500000
	X	10.000000	4.000000	8.000000
	X	8.500000	2.500000	7.500000
	X	9.000000	0.000000	7.000000
	X	6.000000	10.000000	3.000000
	X	3.000000	6.000000	9.000000
	X	4.000000	10.000000	3.000000
	X	6.000000	3.000000	0.000000
	X	2.000000	10.000000	10.000000
	X	1.500000	4.500000	6.500000
	X	2.000000	2.000000	6.000000
	X	0.500000	8.500000	9.500000
	X	9.500000	7.500000	7.500000
	X	0.500000	0.500000	5.500000
	X	6.000000	6.000000	5.000000
	X	5.000000	7.000000	1.000000
	X	2.500000	9.500000	2.500000
	X	3.500000	5.500000	0.500000
	X	4.000000	3.000000	0.000000
	X	1.500000	5.500000	7.500000
	X	2.000000	3.000000	7.000000
	X	0.500000	1.500000	6.500000
	X	5.000000	8.000000	2.000000
	X	4.000000	4.000000	1.000000
	X	9.500000	8.500000	7.500000
	X	4.000000	7.000000	6.000000
	X	9.500000	0.500000	3.500000
	X	4.000000	6.000000	10.000000
	X	3.500000	0.500000	6.500000
	X	6.500000	8.500000	7.500000
	X	8.000000	10.000000	9.000000
	X	8.000000	2.000000	5.000000
	X	5.500000	9.500000	3.500000
	X	6.500000	5.500000	1.500000
	X	7.000000	3.000000	1.000000
	X	4.500000	5.500000	2.500000
	X	5.000000	3.000000	8.000000
	X	2.500000	5.500000	9.500000
	X	8.500000	9.500000	1.500000
	X	3.500000	1.500000	7.500000
	X	6.500000	9.500000	8.500000
	X	8.000000	3.000000	6.000000
	X	0.000000	9.000000	3.000000
	X	5.500000	2.500000	0.500000
	X	4.500000	6.500000	3.500000
	X	9.000000	7.000000	0.000000
	X	7.000000	7.000000	7.000000
	X	4.500000	9.500000	8.500000
	X	6.500000	1.500000	3.500000
	X	8.500000	1.500000	2.500000
	X	8.500000	4.500000	7.500000
	X	1.000000	5.000000	5.000000
	X	0.000000	1.000000	4.000000
	X	4.500000	1.500000	9.500000
	X	10.000000	7.000000	9.000000
	X	8.500000	5.500000	8.500000
	X	3.000000	9.000000	4.000000
	X	1.000000	1.000000	7.000000
	X	0.000000	5.000000	10.000000
	X	2.000000	10.000000	0.000000
	X	7.500000	9.500000	9.500000
	X	9.000000	3.000000	7.000000
	X	3.000000	2.000000	1.000000
	X	1.500000	7.500000	7.500000
	X	10.000000	8.000000	9.000000
	X	3.000000	1.000000	5.000000
	X	0.500000	3.500000	6.500000
	X	7.500000	2.500000	6.500000
	X	9.000000	4.000000	8.000000
	X	10.000000	0.000000	5.000000
	X	3.000000	4.000000	10.000000
	X	5.000000	10.000000	2.000000
	X	3.500000	8.500000	1.500000
	X	6.000000	9.000000	5.000000
	X	4.000000	9.000000	6.000000
	X	6.000000	1.000000	1.000000
	X	4.000000	6.000000	0.000000
	X	2.000000	6.000000	7.000000
	X	1.500000	0.500000	3.500000
	X	6.000000	10.000000	6.000000
	X	9.500000	3.500000	4.500000
	X	6.000000	2.000000	2.000000
	X	3.500000	4.500000	3.500000
	X	9.500000	6.500000	9.500000
	X	5.000000	6.000000	3.000000
	X	4.000000	10.000000	6.000000
	X	4.000000	2.000000	2.000000
	X	2.000000	2.000000	9.000000
	X	8.000000	5.000000	5.000000
	X	4.500000	8.500000	2.500000
	X	2.500000	8.500000	9.500000
	X	2.500000	0.500000	5.500000
	X	9.000000	10.000000	1.000000
	X	7.000000	10.000000	8.000000
	X	6.500000	4.500000	4.500000
	X	7.000000	2.000000	4.000000
	X	8.000000	6.000000	6.000000
	X	5.500000	5.500000	0.500000
	X	2.500000	1.500000	6.500000
	X	5.500000	8.500000	5.500000
	X	4.500000	4.500000	4.500000
	X	5.000000	2.000000	10.000000
	X	3.500000	0.500000	9.500000
	X	8.000000	2.000000	8.000000
	X	1.000000	8.000000	5.000000
	X	5.500000	9.500000	6.500000
	X	5.500000	1.500000	2.500000
	X	0.000000	4.000000	4.000000
	X	4.500000	5.500000	5.500000
	X	7.000000	3.000000	4.000000
	X	0.000000	7.000000	9.000000
	X	10.000000	10.000000	9.000000
	X	8.500000	8.500000	8.500000
	X	9.000000	6.000000	8.000000
	X	8.500000	0.500000	4.500000
	X	3.000000	4.000000	0.000000
	X	1.000000	4.000000	7.000000
	X	7.500000	1.500000	0.500000
	X	0.000000	8.000000	10.000000
	X	0.000000	0.000000	6.000000
	X	7.500000	4.500000	5.500000
	X	8.500000	1.500000	5.500000
	X	2.000000	9.000000	3.000000
	X	3.000000	5.000000	1.000000
	X	0.500000	7.500000	2.500000
	X	1.000000	5.000000	8.000000
	X	9.000000	2.000000	10.000000
	X	10.000000	3.000000	5.000000
	X	7.500000	5.500000	6.500000
	X	1.500000	3.500000	4.500000
	X	6.000000	4.000000	1.000000
	X	3.500000	6.500000	2.500000
	X	1.500000	6.500000	9.500000
	X	3.000000	0.000000	7.000000
	X	0.500000	2.500000	8.500000
	X	2.000000	1.000000	3.000000
	X	5.000000	9.000000	4.000000
	X	6.000000	5.000000	2.000000
	X	3.500000	7.500000	3.500000
	X	4.000000	5.000000	3.000000
	X	2.000000	5.000000	10.000000
	X	3.000000	1.000000	8.000000
	X	0.500000	3.500000	9.500000
	X	9.500000	9.500000	9.500000
	X	9.500000	1.500000	5.500000
	X	5.000000	10.000000	5.000000
	X	8.000000	9.000000	1.000000
	X	4.000000	9.000000	9.000000
	X	6.000000	1.000000	4.000000
	X	9.500000	2.500000	6.500000
	X	6.000000	0.000000	8.000000
	X	3.500000	2.500000	9.500000
	X	2.500000	4.500000	1.500000
	X	4.000000	6.000000	3.000000
	X	5.000000	2.000000	0.000000
	X	6.500000	7.500000	4.500000
	X	7.000000	5.000000	4.000000
	X	4.500000	7.500000	5.500000
	X	8.000000	1.000000	2.000000
	X	4.000000	1.000000	10.000000
	X	8.000000	4.000000	7.000000
	X	7.000000	6.000000	5.000000
	X	6.500000	0.500000	1.500000
	X	9.000000	9.000000	3.000000
	X	7.000000	9.000000	10.000000
	X	8.000000	5.000000	8.000000
	X	0.000000	8.000000	0.000000
	X	5.500000	4.500000	2.500000
	X	4.500000	8.500000	5.500000
	X	4.500000	0.500000	1.500000
	X	10.000000	6.000000	1.000000
	X	2.500000	0.500000	8.500000
	X	9.000000	10.000000	4.000000
	X	9.000000	2.000000	0.000000
	X	7.000000	2.000000	7.000000
	X	8.500000	3.500000	4.500000
	X	3.000000	7.000000	0.000000
	X	0.500000	9.500000	1.500000
	X	1.000000	7.000000	7.000000
	X	8.500000	6.500000	9.500000
	X	0.000000	3.000000	6.000000
	X	3.000000	8.000000	1.000000
	X	9.000000	5.000000	10.000000
	X	1.000000	8.000000	8.000000
	X	1.000000	0.000000	4.000000
	X	0.000000	4.000000	7.000000
	X	7.500000	8.500000	6.500000
	X	7.500000	0.500000	2.500000
	X	5.500000	0.500000	9.500000
	X	10.000000	2.000000	8.000000
	X	2.000000	5.000000	0.000000
	X	3.000000	4.000000	3.000000
	X	7.500000	1.500000	3.500000
	X	1.500000	9.500000	9.500000
	X	3.000000	3.000000	7.000000
	X	0.500000	5.500000	8.500000
	X	7.500000	4.500000	8.500000
	X	6.000000	8.000000	2.000000
	X	2.500000	6.500000	1.500000
	X	4.000000	8.000000	3.000000
	X	2.000000	8.000000	10.000000
	X	1.500000	2.500000	6.500000
	X	2.000000	0.000000	6.000000
	X	0.500000	6.500000	9.500000
	X	5.000000	5.000000	1.000000
	X	3.500000	3.500000	0.500000
	X	4.000000	1.000000	0.000000
	X	9.500000	5.500000	6.500000
	X	6.000000	4.000000	4.000000
	X	3.500000	6.500000	5.500000
	X	3.000000	0.000000	10.000000
	X	2.500000	7.500000	1.500000
	X	7.000000	9.000000	0.000000
	X	2.000000	1.000000	6.000000
	X	6.500000	2.500000	0.500000
	X	2.500000	2.500000	8.500000
	X	4.000000	4.000000	10.000000
	X	9.500000	1.500000	8.500000
	X	5.500000	7.500000	3.500000
	X	6.500000	3.500000	1.500000
	X	7.000000	1.000000	1.000000
	X	5.000000	1.000000	8.000000
	X	6.500000	6.500000	6.500000
	X	7.000000	4.000000	6.000000
	X	8.000000	8.000000	8.000000
	X	8.000000	0.000000	4.000000
	X	4.500000	3.500000	1.500000
	X	10.000000	9.000000	1.000000
	X	1.000000	10.000000	8.000000
	X	2.500000	3.500000	8.500000
	X	8.500000	7.500000	0.500000
	X	9.000000	5.000000	0.000000
	X	7.000000	5.000000	7.000000
	X	4.500000	7.500000	8.500000
	X	0.000000	6.000000	6.000000
	X	10.000000	1.000000	2.000000
	X	1.000000	6.000000	10.000000
	X	7.500000	3.500000	3.500000
	X	10.000000	4.000000	7.000000
	X	7.500000	6.500000	8.500000
	X	9.000000	8.000000	10.000000
	X	8.500000	2.500000	6.500000
	X	9.000000	0.000000	6.000000
	X	1.000000	3.000000	4.000000
	X	0.000000	2.000000	8.000000
	X	10.000000	5.000000	8.000000
	X	2.000000	8.000000	0.000000
	X	7.500000	7.500000	9.500000
	X	8.500000	3.500000	7.500000
	X	9.000000	1.000000	7.000000
	X	3.000000	7.000000	3.000000
	X	0.500000	9.500000	4.500000
	X	3.000000	2.000000	10.000000
	X	2.000000	4.000000	2.000000
	X	1.500000	5.500000	6.500000
	X	2.000000	3.000000	6.000000
	X	0.500000	1.500000	5.500000
	X	6.000000	7.000000	5.000000
	X	5.000000	8.000000	1.000000
	X	4.000000	4.000000	0.000000
	X	9.500000	8.500000	6.500000
	X	3.500000	9.500000	5.500000
	X	4.000000	7.000000	5.000000
	X	9.500000	0.500000	2.500000
	X	1.500000	1.500000	8.500000
	X	3.000000	3.000000	10.000000
	X	5.000000	4.000000	3.000000
	X	2.500000	6.500000	4.500000
	X	4.000000	8.000000	6.000000
	X	6.000000	0.000000	1.000000
	X	4.000000	0.000000	2.000000
	X	2.000000	0.000000	9.000000
	X	9.500000	4.500000	8.500000
	X	8.500000	9.500000	0.500000
	X	3.500000	1.500000	6.500000
	X	6.500000	9.500000	7.500000
	X	8.000000	3.000000	5.000000
	X	0.000000	9.000000	2.000000
	X	4.500000	6.500000	2.500000
	X	7.000000	7.000000	6.000000
	X	4.500000	9.500000	7.500000
	X	6.500000	1.500000	2.500000
	X	1.000000	6.000000	0.000000
	X	5.500000	3.500000	0.500000
	X	9.000000	8.000000	0.000000
	X	5.500000	6.500000	5.500000
	X	7.000000	8.000000	7.000000
	X	6.500000	2.500000	3.500000
	X	7.000000	0.000000	3.000000
	X	4.500000	2.500000	4.500000
	X	5.000000	0.000000	10.000000
	X	0.000000	10.000000	2.000000
	X	8.500000	5.500000	7.500000
	X	1.000000	9.000000	10.000000
	X	1.000000	1.000000	6.000000
	X	0.000000	5.000000	9.000000
	X	7.000000	4.000000	9.000000
	X	3.000000	10.000000	4.000000
	X	3.000000	2.000000	0.000000
	X	1.000000	2.000000	7.000000
	X	10.000000	8.000000	8.000000
	X	10.000000	0.000000	4.000000
	X	7.500000	2.500000	5.500000
	X	9.000000	4.000000	7.000000
	X	1.500000	8.500000	1.500000
	X	0.500000	4.500000	0.500000
	X	0.000000	6.000000	9.000000
	X	10.000000	1.000000	5.000000
	X	7.500000	3.500000	6.500000
	X	10.000000	4.000000	10.000000
	X	2.000000	7.000000	2.000000
	X	9.000000	0.000000	9.000000
	X	1.500000	0.500000	2.500000
	X	6.000000	10.000000	5.000000
	X	6.000000	2.000000	1.000000
	X	3.500000	4.500000	2.500000
	X	5.000000	6.000000	2.000000
	X	4.000000	10.000000	5.000000
	X	6.000000	3.000000	2.000000
	X	4.000000	2.000000	1.000000
	X	1.500000	4.500000	8.500000
	X	2.000000	2.000000	8.000000
	X	9.500000	7.500000	9.500000
	X	0.500000	0.500000	7.500000
	X	6.000000	6.000000	7.000000
	X	5.000000	7.000000	3.000000
	X	2.500000	9.500000	4.500000
	X	3.500000	5.500000	2.500000
	X	4.000000	3.000000	2.000000
	X	2.000000	3.000000	9.000000
	X	8.000000	7.000000	1.000000
	X	8.000000	6.000000	5.000000
	X	5.000000	0.000000	0.000000
	X	2.500000	2.500000	1.500000
	X	8.000000	9.000000	10.000000
	X	2.500000	1.500000	5.500000
	X	9.500000	0.500000	5.500000
	X	5.000000	2.000000	9.000000
	X	3.500000	0.500000	8.500000
	X	1.000000	9.000000	0.000000
	X	6.500000	8.500000	9.500000
	X	8.000000	2.000000	7.000000
	X	5.500000	9.500000	5.500000
	X	5.500000	1.500000	1.500000
	X	7.000000	3.000000	3.000000
	X	4.500000	5.500000	4.500000
	X	5.000000	3.000000	10.000000
	X	6.500000	5.500000	3.500000
	X	8.500000	9.500000	3.500000
	X	3.500000	1.500000	9.500000
	X	1.000000	10.000000	1.000000
	X	8.000000	3.000000	8.000000
	X	0.000000	9.000000	5.000000
	X	5.500000	2.500000	2.500000
	X	4.500000	6.500000	5.500000
	X	9.000000	7.000000	2.000000
	X	0.000000	8.000000	9.000000
	X	7.000000	7.000000	9.000000
	X	6.500000	1.500000	5.500000
	X	8.500000	1.500000	4.500000
	X	3.000000	5.000000	0.000000
	X	0.500000	7.500000	1.500000
	X	1.000000	5.000000	7.000000
	X	8.500000	4.500000	9.500000
	X	10.000000	4.000000	0.000000
	X	0.000000	1.000000	6.000000
	X	10.000000	3.000000	4.000000
	X	7.500000	5.500000	5.500000
	X	3.000000	6.000000	1.000000
	X	3.000000	9.000000	6.000000
	X	1.000000	1.000000	9.000000
	X	2.000000	10.000000	2.000000
	X	0.500000	8.500000	1.500000
	X	9.000000	3.000000	9.000000
	X	3.500000	7.500000	2.500000
	X	1.500000	7.500000	9.500000
	X	3.000000	1.000000	7.000000
	X	0.500000	3.500000	8.500000
	X	10.000000	0.000000	7.000000
	X	5.000000	10.000000	4.000000
	X	3.500000	8.500000	3.500000
	X	8.000000	9.000000	0.000000
	X	6.000000	9.000000	7.000000
	X	4.000000	9.000000	8.000000
	X	6.000000	1.000000	3.000000
	X	9.500000	2.500000	5.500000
	X	2.500000	4.500000	0.500000
	X	4.000000	6.000000	2.000000
	X	2.000000	6.000000	9.000000
	X	1.500000	0.500000	5.500000
	X	8.000000	10.000000	1.000000
	X	9.500000	3.500000	6.500000
	X	6.000000	2.000000	4.000000
	X	3.500000	4.500000	5.500000
	X	3.500000	3.500000	9.500000
	X	2.500000	5.500000	1.500000
	X	5.000000	3.000000	0.000000
	X	5.000000	6.000000	5.000000
	X	4.000000	10.000000	8.000000
	X	4.000000	2.000000	4.000000
	X	7.000000	6.000000	4.000000
	X	6.500000	0.500000	0.500000
	X	8.000000	5.000000	7.000000
	X	5.500000	4.500000	1.500000
	X	4.500000	8.500000	4.500000
	X	4.500000	0.500000	0.500000
	X	10.000000	6.000000	0.000000
	X	2.500000	0.500000	7.500000
	X	9.000000	10.000000	3.000000
	X	7.000000	10.000000	10.000000
	X	6.500000	4.500000	6.500000
	X	7.000000	2.000000	6.000000
	X	8.000000	6.000000	8.000000
	X	5.500000	5.500000	2.500000
	X	4.500000	1.500000	1.500000
	X	10.000000	7.000000	1.000000
	X	2.500000	1.500000	8.500000
	X	5.500000	8.500000	7.500000
	X	8.500000	5.500000	0.500000
	X	4.500000	4.500000	6.500000
	X	3.000000	8.000000	0.000000
	X	7.500000	9.500000	1.500000
	X	1.000000	8.000000	7.000000
	X	8.500000	7.500000	9.500000
	X	1.000000	0.000000	3.000000
	X	5.500000	1.500000	4.500000
	X	0.000000	4.000000	6.000000
	X	7.500000	8.500000	5.500000
	X	5.500000	0.500000	8.500000
	X	10.000000	2.000000	7.000000
	X	9.000000	6.000000	10.000000
	X	8.500000	0.500000	6.500000
	X	3.000000	4.000000	2.000000
	X	1.000000	4.000000	9.000000
	X	7.500000	1.500000	2.500000
	X	0.000000	0.000000	8.000000
	X	7.500000	4.500000	7.500000
	X	8.500000	1.500000	7.500000
	X	2.000000	9.000000	5.000000
	X	3.000000	5.000000	3.000000
	X	0.500000	7.500000	4.500000
	X	10.000000	3.000000	7.000000
	X	0.500000	6.500000	8.500000
	X	7.500000	5.500000	8.500000
	X	9.500000	6.500000	1.500000
	X	1.500000	3.500000	6.500000
	X	6.000000	4.000000	3.000000
	X	3.500000	6.500000	4.500000
	X	3.000000	0.000000	9.000000
	X	2.500000	7.500000	0.500000
	X	2.000000	1.000000	5.000000
	X	5.000000	9.000000	6.000000
	X	6.000000	5.000000	4.000000
	X	3.500000	7.500000	5.500000
	X	4.000000	5.000000	5.000000
	X	3.000000	1.000000	10.000000
	X	9.500000	1.500000	7.500000
	X	2.500000	8.500000	1.500000
	X	7.000000	10.000000	0.000000
	X	5.000000	10.000000	7.000000
	X	8.000000	9.000000	3.000000
	X	9.500000	2.500000	8.500000
	X	8.000000	8.000000	7.000000
	X	6.000000	0.000000	10.000000
	X	5.000000	2.000000	2.000000
	X	2.500000	3.500000	7.500000
	X	6.500000	7.500000	6.500000
	X	7.000000	5.000000	6.000000
	X	4.500000	7.500000	7.500000
	X	8.000000	1.000000	4.000000
	X	8.000000	4.000000	9.000000
	X	0.000000	7.000000	1.000000
	X	10.000000	10.000000	1.000000
	X	8.500000	8.500000	0.500000
	X	9.000000	6.000000	0.000000
	X	7.000000	6.000000	7.000000
	X	6.500000	0.500000	3.500000
	X	9.000000	9.000000	5.000000
	X	8.000000	5.000000	10.000000
	X	5.500000	4.500000	4.500000
	X	4.500000	8.500000	7.500000
	X	4.500000	0.500000	3.500000
	X	10.000000	6.000000	3.000000
	X	9.000000	2.000000	2.000000
	X	7.500000	7.500000	8.500000
	X	8.500000	3.500000	6.500000
	X	3.000000	7.000000	2.000000
	X	0.500000	9.500000	3.500000
	X	1.000000	7.000000	9.000000
	X	0.000000	3.000000	8.000000
	X	1.500000	6.500000	1.500000
	X	2.000000	4.000000	1.000000
	X	3.000000	8.000000	3.000000
	X	0.500000	2.500000	0.500000
	X	1.000000	0.000000	6.000000
	X	7.500000	8.500000	8.500000
	X	7.500000	0.500000	4.500000
	X	10.000000	2.000000	10.000000
	X	2.000000	5.000000	2.000000
	X	9.500000	9.500000	1.500000
	X	3.500000	9.500000	4.500000
	X	1.500000	1.500000	7.500000
	X	3.000000	3.000000	9.000000
	X	5.000000	4.000000	2.000000
	X	2.500000	6.500000	3.500000
	X	4.000000	8.000000	5.000000
	X	6.000000	0.000000	0.000000
	X	3.500000	2.500000	1.500000
	X	4.000000	0.000000	1.000000
	X	1.500000	2.500000	8.500000
	X	2.000000	0.000000	8.000000
	X	6.000000	8.000000	4.000000
	X	9.500000	4.500000	7.500000
	X	5.000000	5.000000	3.000000
	X	3.500000	3.500000	2.500000
	X	4.000000	1.000000	2.000000
	X	9.500000	5.500000	8.500000
	X	6.000000	4.000000	6.000000
	X	3.500000	6.500000	7.500000
	X	2.500000	7.500000	3.500000
	X	8.000000	7.000000	10.000000
	X	7.000000	9.000000	2.000000
	X	7.000000	8.000000	6.000000
	X	6.500000	2.500000	2.500000
	X	5.000000	0.000000	9.000000
	X	0.000000	10.000000	1.000000
	X	5.500000	7.500000	5.500000
	X	6.500000	3.500000	3.500000
	X	7.000000	1.000000	3.000000
	X	5.000000	1.000000	10.000000
	X	8.500000	6.500000	1.500000
	X	6.500000	6.500000	8.500000
	X	7.000000	4.000000	8.000000
	X	8.000000	8.000000	10.000000
	X	8.000000	0.000000	6.000000
	X	4.500000	3.500000	3.500000
	X	10.000000	9.000000	3.000000
	X	1.000000	10.000000	10.000000
	X	9.000000	5.000000	2.000000
	X	7.000000	5.000000	9.000000
	X	0.000000	6.000000	8.000000
	X	10.000000	1.000000	4.000000
	X	7.500000	3.500000	5.500000
	X	1.500000	9.500000	1.500000
	X	2.000000	7.000000	1.000000
	X	10.000000	4.000000	9.000000
	X	8.500000	2.500000	8.500000
	X	0.500000	5.500000	0.500000
	X	1.000000	3.000000	6.000000
	X	9.000000	0.000000	8.000000
	X	0.000000	2.000000	10.000000
	X	10.000000	5.000000	10.000000
	X	2.000000	8.000000	2.000000
	X	9.000000	1.000000	9.000000
	X	3.000000	7.000000	5.000000
	X	6.000000	3.000000	1.000000
	X	6.000000	6.000000	6.000000
	X	2.500000	9.500000	3.500000
	X	3.500000	5.500000	1.500000
	X	1.500000	5.500000	8.500000
	X	2.000000	3.000000	8.000000
	X	8.000000	7.000000	0.000000
	X	0.500000	1.500000	7.500000
	X	6.000000	7.000000	7.000000
	X	5.000000	8.000000	3.000000
	X	2.500000	2.500000	0.500000
	X	4.000000	4.000000	2.000000
	X	9.500000	8.500000	8.500000
	X	3.500000	9.500000	7.500000
	X	4.000000	7.000000	7.000000
	X	9.500000	0.500000	4.500000
	X	5.000000	1.000000	0.000000
	X	5.000000	4.000000	5.000000
	X	2.500000	6.500000	6.500000
	X	4.000000	0.000000	4.000000
	X	6.500000	5.500000	2.500000
	X	8.500000	9.500000	2.500000
	X	3.500000	1.500000	8.500000
	X	1.000000	10.000000	0.000000
	X	6.500000	9.500000	9.500000
	X	8.000000	3.000000	7.000000
	X	0.000000	9.000000	4.000000
	X	5.500000	2.500000	1.500000
	X	4.500000	6.500000	4.500000
	X	9.000000	7.000000	1.000000
	X	7.000000	7.000000	8.000000
	X	4.500000	9.500000	9.500000
	X	6.500000	1.500000	4.500000
	X	1.000000	6.000000	2.000000
	X	5.500000	3.500000	2.500000
	X	7.500000	6.500000	0.500000
	X	9.000000	8.000000	2.000000
	X	5.500000	6.500000	7.500000
	X	7.000000	8.000000	9.000000
	X	6.500000	2.500000	5.500000
	X	7.000000	0.000000	5.000000
	X	4.500000	2.500000	6.500000
	X	0.000000	2.000000	0.000000
	X	3.000000	6.000000	0.000000
	X	7.500000	7.500000	1.500000
	X	8.500000	5.500000	9.500000
	X	10.000000	5.000000	0.000000
	X	3.000000	9.000000	5.000000
	X	1.000000	1.000000	8.000000
	X	2.000000	10.000000	1.000000
	X	0.500000	8.500000	0.500000
	X	9.000000	3.000000	8.000000
	X	3.000000	10.000000	6.000000
	X	3.000000	2.000000	2.000000
	X	1.000000	2.000000	9.000000
	X	10.000000	8.000000	10.000000
	X	10.000000	0.000000	6.000000
	X	7.500000	2.500000	7.500000
	X	9.000000	4.000000	9.000000
	X	1.500000	8.500000	3.500000
	X	0.500000	4.500000	2.500000
	X	10.000000	1.000000	7.000000
	X	7.500000	3.500000	8.500000
	X	2.000000	7.000000	4.000000
	X	2.000000	6.000000	8.000000
	X	1.500000	0.500000	4.500000
	X	8.000000	10.000000	0.000000
	X	6.000000	10.000000	7.000000
	X	6.000000	2.000000	3.000000
	X	3.500000	4.500000	4.500000
	X	2.500000	5.500000	0.500000
	X	5.000000	6.000000	4.000000
	X	4.000000	10.000000	7.000000
	X	6.000000	3.000000	4.000000
	X	4.000000	2.000000	3.000000
	X	2.000000	2.000000	10.000000
	X	0.500000	0.500000	9.500000
	X	6.000000	6.000000	9.000000
	X	5.000000	7.000000	5.000000
	X	2.500000	9.500000	6.500000
	X	4.000000	3.000000	4.000000
	X	6.500000	4.500000	5.500000
	X	8.000000	6.000000	7.000000
	X	5.500000	5.500000	1.500000
	X	4.500000	1.500000	0.500000
	X	10.000000	7.000000	0.000000
	X	2.500000	1.500000	7.500000
	X	1.000000	9.000000	2.000000
	X	8.000000	2.000000	9.000000
	X	0.000000	5.000000	1.000000
	X	7.500000	9.500000	0.500000
	X	5.500000	9.500000	7.500000
	X	5.500000	1.500000	3.500000
	X	7.000000	3.000000	5.000000
	X	4.500000	5.500000	6.500000
	X	6.500000	5.500000	5.500000
	X	8.500000	9.500000	5.500000
	X	8.500000	8.500000	9.500000
	X	10.000000	8.000000	0.000000
	X	5.500000	2.500000	4.500000
	X	1.000000	4.000000	8.000000
	X	9.000000	7.000000	4.000000
	X	0.000000	0.000000	7.000000
	X	8.500000	1.500000	6.500000
	X	2.000000	9.000000	4.000000
	X	3.000000	5.000000	2.000000
	X	0.500000	7.500000	3.500000
	X	1.000000	5.000000	9.000000
	X	0.000000	1.000000	8.000000
	X	10.000000	3.000000	6.000000
	X	7.500000	5.500000	7.500000
	X	3.000000	6.000000	3.000000
	X	9.500000	6.500000	0.500000
	X	3.000000	9.000000	8.000000
	X	2.000000	10.000000	4.000000
	X	1.500000	4.500000	0.500000
	X	2.000000	2.000000	0.000000
	X	9.500000	7.500000	1.500000
	X	6.000000	5.000000	3.000000
	X	3.500000	7.500000	4.500000
	X	3.000000	1.000000	9.000000
	X	2.500000	8.500000	0.500000
	X	5.000000	10.000000	6.000000
	X	3.500000	8.500000	5.500000
	X	8.000000	9.000000	2.000000
	X	6.000000	9.000000	9.000000
	X	4.000000	9.000000	10.000000
	X	6.000000	1.000000	5.000000
	X	9.500000	2.500000	7.500000
	X	5.000000	2.000000	1.000000
	X	2.500000	4.500000	2.500000
	X	4.000000	6.000000	4.000000
	X	3.500000	0.500000	0.500000
	X	6.500000	8.500000	1.500000
	X	1.500000	0.500000	7.500000
	X	8.000000	10.000000	3.000000
	X	9.500000	3.500000	8.500000
	X	6.000000	2.000000	6.000000
	X	5.000000	3.000000	2.000000
	X	2.500000	5.500000	3.500000
	X	5.000000	6.000000	7.000000
	X	4.000000	2.000000	6.000000
	X	7.000000	6.000000	6.000000
	X	6.500000	0.500000	2.500000
	X	8.000000	5.000000	9.000000
	X	0.000000	8.000000	1.000000
	X	5.500000	4.500000	3.500000
	X	4.500000	8.500000	6.500000
	X	4.500000	0.500000	2.500000
	X	10.000000	6.000000	2.000000
	X	2.500000	0.500000	9.500000
	X	9.000000	10.000000	5.000000
	X	8.500000	4.500000	1.500000
	X	9.000000	2.000000	1.000000
	X	6.500000	4.500000	8.500000
	X	7.000000	2.000000	8.000000
	X	8.000000	6.000000	10.000000
	X	5.500000	5.500000	4.500000
	X	4.500000	1.500000	3.500000
	X	10.000000	7.000000	3.000000
	X	5.500000	8.500000	9.500000
	X	4.500000	4.500000	8.500000
	X	1.500000	6.500000	0.500000
	X	3.000000	8.000000	2.000000
	X	1.000000	8.000000	9.000000
	X	1.000000	0.000000	5.000000
	X	9.000000	3.000000	1.000000
	X	0.000000	4.000000	8.000000
	X	7.500000	8.500000	7.500000
	X	1.500000	7.500000	1.500000
	X	2.000000	5.000000	1.000000
	X	10.000000	2.000000	9.000000
	X	8.500000	0.500000	8.500000
	X	0.500000	3.500000	0.500000
	X	9.500000	9.500000	0.500000
	X	3.000000	4.000000	4.000000
	X	7.500000	1.500000	4.500000
	X	0.000000	0.000000	10.000000
	X	7.500000	4.500000	9.500000
	X	4.000000	9.000000	0.000000
	X	2.000000	9.000000	7.000000
	X	1.500000	2.500000	7.500000
	X	10.000000	3.000000	9.000000
	X	5.000000	5.000000	2.000000
	X	9.500000	6.500000	3.500000
	X	3.500000	3.500000	1.500000
	X	4.000000	1.000000	1.000000
	X	1.500000	3.500000	8.500000
	X	9.500000	5.500000	7.500000
	X	6.000000	4.000000	5.000000
	X	3.500000	6.500000	6.500000
	X	2.500000	7.500000	2.500000
	X	7.000000	9.000000	1.000000
	X	2.000000	1.000000	7.000000
	X	5.000000	9.000000	8.000000
	X	6.000000	5.000000	6.000000
	X	3.500000	7.500000	7.500000
	X	4.000000	5.000000	7.000000
	X	9.500000	1.500000	9.500000
	X	2.500000	8.500000	3.500000
	X	7.000000	10.000000	2.000000
	X	6.500000	3.500000	2.500000
	X	5.000000	1.000000	9.000000
	X	6.500000	6.500000	7.500000
	X	8.000000	8.000000	9.000000
	X	8.000000	0.000000	5.000000
	X	4.500000	3.500000	2.500000
	X	10.000000	9.000000	2.000000
	X	2.500000	3.500000	9.500000
	X	8.500000	7.500000	1.500000
	X	9.000000	5.000000	1.000000
	X	6.500000	7.500000	8.500000
	X	7.000000	5.000000	8.000000
	X	4.500000	7.500000	9.500000
	X	8.000000	1.000000	6.000000
	X	0.000000	7.000000	3.000000
	X	5.500000	0.500000	0.500000
	X	10.000000	10.000000	3.000000
	X	8.500000	8.500000	2.500000
	X	9.000000	6.000000	2.000000
	X	7.000000	6.000000	9.000000
	X	9.000000	9.000000	7.000000
	X	1.000000	4.000000	1.000000
	X	1.000000	3.000000	5.000000
	X	5.500000	4.500000	6.500000
	X	4.500000	0.500000	5.500000
	X	0.000000	2.000000	9.000000
	X	10.000000	5.000000	9.000000
	X	2.000000	8.000000	1.000000
	X	8.500000	3.500000	8.500000
	X	0.500000	6.500000	0.500000
	X	9.000000	1.000000	8.000000
	X	3.000000	7.000000	4.000000
	X	0.500000	9.500000	5.500000
	X	0.000000	3.000000	10.000000
	X	1.500000	6.500000	3.500000
	X	2.000000	4.000000	3.000000
	X	3.000000	8.000000	5.000000
	X	3.000000	0.000000	1.000000
	X	0.500000	2.500000	2.500000
	X	1.000000	0.000000	8.000000
	X	6.000000	7.000000	6.000000
	X	7.500000	0.500000	6.500000
	X	9.500000	9.500000	3.500000
	X	3.500000	9.500000	6.500000
	X	1.500000	1.500000	9.500000
	X	5.000000	4.000000	4.000000
	X	2.500000	6.500000	5.500000
	X	4.000000	8.000000	7.000000
	X	6.000000	0.000000	2.000000
	X	3.500000	2.500000	3.500000
	X	4.000000	0.000000	3.000000
	X	6.000000	8.000000	6.000000
	X	2.000000	0.000000	10.000000
	X	9.500000	4.500000	9.500000
	X	5.000000	5.000000	5.000000
	X	4.000000	1.000000	4.000000
	X	8.000000	4.000000	1.000000
	X	1.000000	6.000000	1.000000
	X	5.500000	3.500000	1.500000
	X	9.000000	8.000000	1.000000
	X	5.500000	6.500000	6.500000
	X	7.000000	8.000000	8.000000
	X	6.500000	2.500000	4.500000
	X	7.000000	0.000000	4.000000
	X	4.500000	2.500000	5.500000
	X	0.000000	10.000000	3.000000
	X	7.500000	7.500000	0.500000
	X	5.500000	7.500000	7.500000
	X	6.500000	3.500000	5.500000
	X	7.000000	1.000000	5.000000
	X	8.500000	6.500000	3.500000
	X	1.000000	7.000000	1.000000
	X	7.000000	4.000000	10.000000
	X	8.000000	0.000000	8.000000
	X	0.000000	3.000000	0.000000
	X	3.000000	10.000000	5.000000
	X	4.500000	3.500000	5.500000
	X	10.000000	9.000000	5.000000
	X	1.000000	2.000000	8.000000
	X	9.000000	5.000000	4.000000
	X	1.500000	8.500000	2.500000
	X	0.500000	4.500000	1.500000
	X	0.000000	6.000000	10.000000
	X	10.000000	1.000000	6.000000
	X	7.500000	3.500000	7.500000
	X	1.500000	9.500000	3.500000
	X	2.000000	7.000000	3.000000
	X	3.000000	3.000000	1.000000
	X	0.500000	5.500000	2.500000
	X	1.000000	3.000000	8.000000
	X	9.000000	0.000000	10.000000
	X	2.000000	8.000000	4.000000
	X	2.000000	0.000000	0.000000
	X	6.000000	3.000000	3.000000
	X	1.500000	4.500000	9.500000
	X	0.500000	0.500000	8.500000
	X	6.000000	6.000000	8.000000
	X	9.500000	5.500000	0.500000
	X	5.000000	7.000000	4.000000
	X	2.500000	9.500000	5.500000
	X	3.500000	5.500000	3.500000
	X	4.000000	3.000000	3.000000
	X	2.000000	3.000000	10.000000
	X	8.000000	7.000000	2.000000
	X	0.500000	1.500000	9.500000
	X	6.000000	7.000000	9.000000
	X	5.000000	8.000000	5.000000
	X	5.000000	0.000000	1.000000
	X	2.500000	2.500000	2.500000
	X	4.000000	4.000000	4.000000
	X	3.500000	9.500000	9.500000
	X	4.000000	7.000000	9.000000
	X	9.500000	0.500000	6.500000
	X	1.000000	9.000000	1.000000
	X	0.000000	5.000000	0.000000
	X	7.000000	4.000000	0.000000
	X	6.500000	5.500000	4.500000
	X	8.500000	9.500000	4.500000
	X	1.000000	10.000000	2.000000
	X	8.000000	3.000000	9.000000
	X	0.000000	9.000000	6.000000
	X	5.500000	2.500000	3.500000
	X	4.500000	6.500000	6.500000
	X	9.000000	7.000000	3.000000
	X	7.000000	7.000000	10.000000
	X	6.500000	1.500000	6.500000
	X	0.000000	6.000000	0.000000
	X	1.000000	6.000000	4.000000
	X	5.500000	3.500000	4.500000
	X	10.000000	4.000000	1.000000
	X	7.500000	6.500000	2.500000
	X	9.000000	8.000000	4.000000
	X	5.500000	6.500000	9.500000
	X	8.500000	2.500000	0.500000
	X	9.000000	0.000000	0.000000
	X	0.000000	1.000000	7.000000
	X	4.500000	2.500000	8.500000
	X	7.000000	0.000000	7.000000
	X	3.000000	6.000000	2.000000
	X	3.000000	9.000000	7.000000
	X	1.000000	1.000000	10.000000
	X	2.000000	10.000000	3.000000
	X	0.500000	8.500000	2.500000
	X	9.000000	3.000000	10.000000
	X	9.500000	7.500000	0.500000
	X	3.000000	10.000000	8.000000
	X	3.000000	2.000000	4.000000
	X	1.500000	5.500000	0.500000
	X	2.000000	3.000000	0.000000
	X	7.500000	2.500000	9.500000
	X	10.000000	0.000000	8.000000
	X	1.500000	8.500000	5.500000
	X	0.500000	4.500000	4.500000
	X	3.500000	8.500000	4.500000
	X	6.000000	9.000000	8.000000
	X	9.500000	8.500000	0.500000
	X	2.000000	6.000000	10.000000
	X	6.500000	8.500000	0.500000
	X	1.500000	0.500000	6.500000
	X	8.000000	10.000000	2.000000
	X	6.000000	10.000000	9.000000
	X	9.500000	3.500000	7.500000
	X	6.000000	2.000000	5.000000
	X	3.500000	4.500000	6.500000
	X	5.000000	3.000000	1.000000
	X	2.500000	5.500000	2.500000
	X	3.500000	1.500000	0.500000
	X	6.500000	9.500000	1.500000
	X	5.000000	6.000000	6.000000
	X	4.000000	10.000000	9.000000
	X	6.000000	3.000000	6.000000
	X	4.000000	2.000000	5.000000
	X	7.000000	7.000000	0.000000
	X	4.500000	9.500000	1.500000
	X	5.000000	7.000000	7.000000
	X	2.500000	9.500000	8.500000
	X	4.000000	3.000000	6.000000
	X	8.500000	4.500000	0.500000
	X	6.500000	4.500000	7.500000
	X	8.000000	6.000000	9.000000
	X	5.500000	5.500000	3.500000
	X	4.500000	1.500000	2.500000
	X	10.000000	7.000000	2.000000
	X	2.500000	1.500000	9.500000
	X	5.500000	8.500000	8.500000
	X	8.500000	5.500000	1.500000
	X	4.500000	4.500000	7.500000
	X	1.000000	9.000000	4.000000
	X	1.000000	1.000000	0.000000
	X	0.000000	5.000000	3.000000
	X	7.500000	9.500000	2.500000
	X	5.500000	9.500000	9.500000
	X	9.000000	3.000000	0.000000
	X	5.500000	1.500000	5.500000
	X	7.000000	3.000000	7.000000
	X	4.500000	5.500000	8.500000
	X	6.500000	5.500000	7.500000
	X	1.500000	7.500000	0.500000
	X	10.000000	8.000000	2.000000
	X	8.500000	0.500000	7.500000
	X	9.000000	4.000000	1.000000
	X	1.000000	4.000000	10.000000
	X	9.000000	7.000000	6.000000
	X	0.000000	0.000000	9.000000
	X	8.500000	1.500000	8.500000
	X	2.000000	9.000000	6.000000
	X	3.000000	5.000000	4.000000
	X	0.500000	7.500000	5.500000
	X	0.000000	1.000000	10.000000
	X	10.000000	3.000000	8.000000
	X	2.000000	6.000000	0.000000
	X	7.500000	5.500000	9.500000
	X	9.500000	6.500000	2.500000
	X	1.500000	3.500000	7.500000
	X	2.000000	10.000000	6.000000
	X	2.000000	2.000000	2.000000
	X	9.500000	7.500000	3.500000
	X	5.000000	9.000000	7.000000
	X	6.000000	5.000000	5.000000
	X	3.500000	7.500000	6.500000
	X	4.000000	5.000000	6.000000
	X	2.500000	8.500000	2.500000
	X	7.000000	10.000000	1.000000
	X	5.000000	10.000000	8.000000
	X	3.500000	8.500000	7.500000
	X	8.000000	9.000000	4.000000
	X	9.500000	2.500000	9.500000
	X	6.000000	1.000000	7.000000
	X	5.000000	2.000000	3.000000
	X	2.500000	4.500000	4.500000
	X	4.000000	6.000000	6.000000
	X	3.500000	0.500000	2.500000
	X	6.500000	8.500000	3.500000
	X	8.000000	2.000000	1.000000
	X	6.500000	7.500000	7.500000
	X	8.000000	1.000000	5.000000
	X	8.000000	4.000000	10.000000
	X	0.000000	7.000000	2.000000
	X	10.000000	10.000000	2.000000
	X	8.500000	8.500000	1.500000
	X	9.000000	6.000000	1.000000
	X	7.000000	6.000000	8.000000
	X	6.500000	0.500000	4.500000
	X	9.000000	9.000000	6.000000
	X	1.000000	4.000000	0.000000
	X	0.000000	8.000000	3.000000
	X	5.500000	4.500000	5.500000
	X	4.500000	8.500000	8.500000
	X	4.500000	0.500000	4.500000
	X	10.000000	6.000000	4.000000
	X	9.000000	10.000000	7.000000
	X	8.500000	4.500000	3.500000
	X	9.000000	2.000000	3.000000
	X	1.000000	5.000000	1.000000
	X	7.000000	2.000000	10.000000
	X	0.000000	1.000000	0.000000
	X	5.500000	5.500000	6.500000
	X	4.500000	1.500000	5.500000
	X	10.000000	7.000000	5.000000
	X	1.000000	7.000000	10.000000
	X	0.000000	3.000000	9.000000
	X	1.500000	6.500000	2.500000
	X	3.000000	8.000000	4.000000
	X	3.000000	0.000000	0.000000
	X	0.500000	2.500000	1.500000
	X	1.000000	0.000000	7.000000
	X	0.000000	4.000000	10.000000
	X	7.500000	8.500000	9.500000
	X	7.500000	0.500000	5.500000
	X	1.500000	7.500000	3.500000
	X	2.000000	5.000000	3.000000
	X	3.000000	1.000000	1.000000
	X	0.500000	3.500000	2.500000
	X	9.500000	9.500000	2.500000
	X	3.000000	4.000000	6.000000
	X	7.500000	1.500000	6.500000
	X	4.000000	9.000000	2.000000
	X	2.000000	9.000000	9.000000
	X	6.000000	8.000000	5.000000
	X	3.500000	2.500000	2.500000
	X	1.500000	2.500000	9.500000
	X	5.000000	5.000000	4.000000
	X	3.500000	3.500000	3.500000
	X	4.000000	1.000000	3.000000
	X	8.000000	4.000000	0.000000
	X	9.500000	5.500000	9.500000
	X	6.000000	4.000000	7.000000
	X	3.500000	6.500000	8.500000
	X	2.500000	7.500000	4.500000
	X	7.000000	9.000000	3.000000
	X	2.000000	1.000000	9.000000
	X	5.000000	9.000000	10.000000
	X	8.000000	5.000000	1.000000
	X	4.000000	5.000000	9.000000
	X	2.500000	8.500000	5.500000
	X	2.500000	0.500000	1.500000
	X	7.000000	2.000000	0.000000
	X	5.500000	7.500000	6.500000
	X	6.500000	3.500000	4.500000
	X	7.000000	1.000000	4.000000
	X	8.500000	6.500000	2.500000
	X	1.000000	7.000000	0.000000
	X	6.500000	6.500000	9.500000
	X	8.000000	0.000000	7.000000
	X	4.500000	3.500000	4.500000
	X	10.000000	9.000000	4.000000
	X	8.500000	7.500000	3.500000
	X	9.000000	5.000000	3.000000
	X	1.000000	8.000000	1.000000
	X	7.000000	5.000000	10.000000
	X	8.000000	1.000000	8.000000
	X	0.000000	4.000000	0.000000
	X	0.000000	7.000000	5.000000
	X	5.500000	0.500000	2.500000
	X	10.000000	10.000000	5.000000
	X	10.000000	2.000000	1.000000
	X	9.000000	6.000000	4.000000
	X	8.500000	0.500000	0.500000
	X	9.000000	9.000000	9.000000
	X	1.500000	9.500000	2.500000
	X	3.000000	3.000000	0.000000
	X	0.500000	5.500000	1.500000
	X	1.000000	3.000000	7.000000
	X	7.500000	4.500000	1.500000
	X	8.500000	2.500000	9.500000
